# SETS
set SWIMMERS := JACK KYLE LIAM MIKE;
set STYLES := BACK BREAST BUTTERFLY CRAWL;

# PARAMETERS
param swimming_times: BACK BREAST BUTTERFLY CRAWL :=
JACK 18 20 19 14
KYLE 19 21 19 14
LIAM 17 20 20 16
MIKE 20 21 20 15;